80
955
7
25
87
44
56
45
81
44
0 1
0 7
0 8
0 9
0 10
0 13
0 14
0 17
0 23
0 24
0 27
0 37
0 38
0 42
0 45
0 49
0 52
0 53
0 54
0 55
0 58
0 61
0 62
0 63
0 66
0 72
0 76
0 77
0 78
1 2
1 4
1 7
1 8
1 28
1 33
1 36
1 41
1 42
1 47
1 53
1 54
1 55
1 56
1 59
1 61
1 62
1 63
1 64
1 66
1 67
1 71
1 72
1 73
1 79
2 4
2 10
2 12
2 13
2 14
2 15
2 16
2 17
2 20
2 23
2 27
2 28
2 31
2 41
2 43
2 45
2 49
2 50
2 51
2 55
2 57
2 61
2 62
2 69
2 70
2 71
2 74
2 75
2 78
2 79
3 5
3 6
3 14
3 18
3 32
3 34
3 39
3 40
3 47
3 48
3 52
3 58
3 59
3 62
3 70
3 72
3 73
3 74
3 75
3 79
4 6
4 8
4 9
4 10
4 11
4 12
4 13
4 16
4 17
4 24
4 31
4 34
4 36
4 37
4 38
4 39
4 51
4 52
4 54
4 58
4 61
4 63
4 64
4 65
4 68
4 70
4 78
5 8
5 12
5 14
5 16
5 18
5 23
5 28
5 29
5 32
5 38
5 40
5 45
5 51
5 52
5 55
5 64
5 65
5 70
5 71
5 72
5 73
6 8
6 12
6 13
6 14
6 16
6 24
6 26
6 34
6 40
6 41
6 43
6 45
6 52
6 55
6 59
6 66
6 68
6 70
6 72
6 74
6 77
7 11
7 16
7 17
7 19
7 23
7 25
7 26
7 27
7 32
7 34
7 36
7 41
7 46
7 48
7 51
7 52
7 61
7 68
7 69
7 71
7 74
7 77
8 10
8 16
8 18
8 19
8 22
8 27
8 31
8 32
8 34
8 37
8 42
8 45
8 50
8 52
8 55
8 60
8 61
8 64
8 70
8 73
8 74
8 75
8 76
8 77
8 78
9 12
9 16
9 27
9 28
9 29
9 36
9 38
9 40
9 50
9 63
9 67
9 68
9 70
9 73
9 75
9 76
10 11
10 13
10 16
10 18
10 23
10 28
10 30
10 31
10 32
10 36
10 38
10 49
10 51
10 52
10 56
10 57
10 58
10 59
10 60
10 64
10 66
10 67
10 71
10 75
10 76
10 77
11 15
11 19
11 23
11 26
11 27
11 28
11 30
11 32
11 36
11 42
11 44
11 45
11 51
11 58
11 61
11 63
11 67
11 75
11 79
12 18
12 20
12 22
12 28
12 29
12 30
12 34
12 38
12 40
12 41
12 45
12 48
12 54
12 55
12 56
12 60
12 64
12 65
12 68
12 70
12 71
12 73
12 77
12 78
13 21
13 22
13 23
13 25
13 27
13 30
13 43
13 44
13 50
13 51
13 53
13 58
13 63
13 68
13 73
13 76
13 78
14 15
14 19
14 20
14 21
14 22
14 26
14 27
14 29
14 35
14 41
14 43
14 54
14 56
14 58
14 59
14 61
14 62
14 64
14 65
14 67
14 69
14 73
14 78
15 19
15 21
15 25
15 26
15 33
15 37
15 41
15 53
15 54
15 59
15 61
15 70
15 77
15 78
16 20
16 35
16 37
16 39
16 40
16 42
16 49
16 55
16 56
16 63
16 71
16 72
16 74
16 75
16 78
17 18
17 22
17 26
17 27
17 35
17 36
17 38
17 39
17 43
17 46
17 47
17 53
17 61
17 63
17 74
17 75
18 22
18 24
18 29
18 31
18 36
18 43
18 47
18 53
18 54
18 60
18 63
18 66
18 68
18 69
18 71
18 73
18 74
19 20
19 22
19 23
19 27
19 30
19 40
19 41
19 42
19 49
19 51
19 52
19 53
19 55
19 60
19 62
19 64
19 68
19 74
19 75
20 21
20 23
20 24
20 26
20 27
20 28
20 36
20 48
20 52
20 54
20 56
20 60
20 64
20 65
20 68
20 70
20 73
20 78
21 22
21 23
21 25
21 27
21 30
21 35
21 39
21 40
21 43
21 44
21 47
21 49
21 51
21 54
21 55
21 60
21 64
21 67
21 75
21 76
22 24
22 25
22 26
22 28
22 32
22 33
22 35
22 37
22 40
22 51
22 56
22 59
22 60
22 62
22 67
22 68
22 72
22 77
23 26
23 29
23 30
23 31
23 35
23 37
23 40
23 44
23 45
23 46
23 49
23 51
23 54
23 55
23 58
23 64
23 66
24 27
24 31
24 32
24 37
24 41
24 43
24 44
24 46
24 48
24 55
24 56
24 57
24 59
24 60
24 64
24 68
24 71
24 78
24 79
25 28
25 31
25 32
25 34
25 37
25 38
25 41
25 43
25 45
25 46
25 50
25 55
25 58
25 60
25 64
25 71
25 72
25 78
25 79
26 27
26 29
26 36
26 41
26 42
26 49
26 51
26 53
26 58
26 66
26 70
26 71
26 74
26 76
26 78
26 79
27 29
27 31
27 34
27 35
27 40
27 48
27 51
27 52
27 55
27 56
27 57
27 58
27 64
27 68
27 72
27 77
27 78
28 29
28 32
28 33
28 38
28 39
28 41
28 49
28 54
28 55
28 57
28 61
28 72
28 73
28 75
28 76
28 79
29 34
29 35
29 38
29 45
29 47
29 48
29 50
29 51
29 53
29 54
29 62
29 63
29 72
29 77
29 78
30 32
30 33
30 35
30 44
30 47
30 53
30 56
30 58
30 59
30 62
30 67
30 70
30 71
30 73
30 78
30 79
31 39
31 44
31 45
31 46
31 47
31 51
31 56
31 57
31 61
31 62
31 63
31 67
31 68
31 79
32 34
32 39
32 41
32 46
32 47
32 52
32 54
32 58
32 59
32 66
32 68
32 69
32 71
32 73
32 74
32 76
33 38
33 41
33 44
33 45
33 47
33 60
33 64
33 67
33 69
33 73
33 75
33 79
34 37
34 42
34 48
34 49
34 50
34 52
34 56
34 57
34 63
34 67
34 69
34 70
34 72
34 74
34 79
35 44
35 49
35 50
35 56
35 57
35 58
35 59
35 64
35 65
35 66
36 37
36 38
36 39
36 44
36 47
36 48
36 49
36 50
36 58
36 59
36 61
36 63
36 70
36 72
36 73
36 76
37 39
37 46
37 48
37 51
37 55
37 56
37 59
37 65
37 70
37 77
38 39
38 47
38 51
38 55
38 56
38 60
38 67
38 70
38 71
38 72
38 73
38 74
38 79
39 40
39 42
39 46
39 47
39 48
39 57
39 58
39 59
39 64
39 71
39 74
39 79
40 42
40 45
40 46
40 53
40 60
40 67
40 68
40 69
40 72
40 74
41 47
41 50
41 57
41 61
41 64
41 67
41 68
41 69
41 71
41 72
41 78
42 46
42 47
42 48
42 53
42 60
42 61
42 62
42 68
42 69
42 75
42 77
43 44
43 50
43 56
43 63
43 64
43 67
43 69
43 74
43 76
43 77
44 52
44 56
44 57
44 60
44 66
44 74
45 51
45 52
45 54
45 55
45 61
45 63
45 66
45 69
45 71
45 72
45 73
46 47
46 48
46 51
46 54
46 55
46 59
46 62
46 64
46 72
46 76
46 78
47 51
47 56
47 59
47 65
47 76
47 77
47 79
48 50
48 55
48 59
48 62
48 74
48 75
48 76
49 50
49 54
49 56
49 57
49 60
49 64
49 67
49 71
49 72
49 73
49 74
49 76
49 78
50 51
50 56
50 61
50 64
50 65
50 69
50 74
50 78
51 53
51 56
51 59
51 63
51 75
52 56
52 58
52 65
52 68
52 72
52 75
52 77
52 79
53 54
53 57
53 64
53 67
53 68
53 72
54 58
54 59
54 61
54 64
54 66
54 70
54 71
54 77
54 78
54 79
55 56
55 58
55 65
55 68
55 73
55 75
56 57
56 67
56 69
56 70
56 76
57 58
57 60
57 68
57 73
58 62
58 64
58 65
58 70
58 71
58 73
58 74
59 67
59 71
59 72
59 75
59 77
59 78
59 79
60 61
60 66
60 73
61 66
61 67
61 69
61 71
61 72
62 65
62 68
62 69
62 70
62 71
62 73
63 67
63 68
63 69
63 71
64 69
64 77
64 79
65 69
65 78
66 69
66 70
66 71
66 72
66 75
66 78
67 68
67 69
67 71
67 72
67 75
67 77
68 69
68 70
68 72
68 75
69 70
69 72
69 74
69 75
69 78
70 71
70 72
70 78
71 74
71 75
71 76
71 77
71 78
72 73
72 76
73 75
73 76
74 76
46 29 41 48 40 37 51 1 63 62 59 43
33 75 8 79 45 10 57 11 24 4 20 60
53 0 21 69 39 34 78 26 32 2 9 12
52 22 35 42 27 28 47 16 30 56 5 49
18 77 19 6 44 58 17 50 3 72 31 64
66 65 76 71 38 7 61 23 36 67 73 14
70 68 25 55 54 13 74 15
